20
0 1 0.34 0.34
0 2 0.33 0.33
0 3 0.38 0.38
0 4 0.64 0.32
0 5 0.2 0.2
0 6 0.72 0.32
0 7 0.28 0.28
0 8 0.76 0.3
0 9 0.32 0.32
0 10 0.22 0.22
0 11 0.18 0.18
0 12 0.16 0.16
0 13 0.25 0.09
0 14 0.25 0.25
0 15 0.84 0.34
0 16 0.7 0.16
0 17 0.22 0.22
0 18 0.36 0.36
0 19 0.39 0.39
1 2 0.4 0.4
1 3 0.18 0.18
1 4 0.6 0.3
1 5 0.36 0.36
1 6 0.58 0.39
1 7 0.24 0.24
1 8 0.36 0.36
1 9 0.59 0.16
1 10 0.19 0.19
1 11 0.4 0.24
1 12 0.52 0.26
1 13 0.54 0.41
1 14 0.46 0.25
1 15 0.31 0.31
1 16 0.25 0.25
1 17 0.12 0.12
1 18 0.3 0.02
1 19 0.2 0.2
2 3 0.66 0.28
2 4 0.47 0.33
2 5 0.17 0.17
2 6 0.37 0.37
2 7 0.32 0.32
2 8 0.43 0.43
2 9 0.36 0.32
2 10 0.21 0.21
2 11 0.66 0.19
2 12 0.17 0.17
2 13 0.61 0.42
2 14 0.33 0.33
2 15 0.41 0.41
2 16 0.72 0.27
2 17 0.84 0.43
2 18 0.41 0.41
2 19 0.88 0.3
3 4 0.68 0.37
3 5 0.27 0.18
3 6 0.52 0.3
3 7 0.78 0.28
3 8 0.38 0.38
3 9 0.34 0.34
3 10 0.32 0.32
3 11 0.61 0.28
3 12 0.81 0.3
3 13 0.47 0.47
3 14 0.34 0.34
3 15 0.83 0.13
3 16 0.51 0.26
3 17 0.62 0.19
3 18 0.42 0.16
3 19 0.57 0.02
4 5 0.2 0.2
4 6 0.48 0.32
4 7 0.68 0.34
4 8 0.42 0.42
4 9 0.32 0.32
4 10 0.45 0.45
4 11 0.3 0.18
4 12 0.16 0.16
4 13 0.31 0.31
4 14 0.24 0.18
4 15 0.42 0.42
4 16 0.42 0.42
4 17 0.43 0.18
4 18 0.64 0.32
4 19 0.35 0.35
5 6 0.38 0.38
5 7 0.75 0.15
5 8 0.49 0.49
5 9 0.8 0.49
5 10 0.31 0.31
5 11 0.68 0.35
5 12 0.72 0.33
5 13 0.72 0.29
5 14 0.7 0.38
5 15 0.24 0.24
5 16 0.36 0.27
5 17 0.67 0.37
5 18 0.6 0.34
5 19 0.2 0.2
6 7 0.27 0.27
6 8 0.68 0.38
6 9 0.52 0.36
6 10 0.22 0.22
6 11 0.58 0.22
6 12 0.2 0.2
6 13 0.3 0.3
6 14 0.14 0.14
6 15 0.17 0.17
6 16 0.16 0.16
6 17 0.34 0.34
6 18 0.4 0.4
6 19 0.64 0.32
7 8 0.76 0.38
7 9 0.52 0.34
7 10 0.16 0.16
7 11 0.57 0.2
7 12 0.18 0.18
7 13 0.37 0.37
7 14 0.44 0.34
7 15 0.52 0.24
7 16 0.12 0.12
7 17 0.63 0.36
7 18 0.22 0.22
7 19 0.63 0.26
8 9 0.46 0.28
8 10 0.22 0.22
8 11 0.36 0.32
8 12 0.68 0.34
8 13 0.21 0.21
8 14 0.7 0.37
8 15 0.25 0.25
8 16 0.28 0.28
8 17 0.24 0.24
8 18 0.36 0.36
8 19 0.7 0.4
9 10 0.6 0.21
9 11 0.14 0.14
9 12 0.4 0.16
9 13 0.4 0.4
9 14 0.64 0.28
9 15 0.34 0.32
9 16 0.22 0.22
9 17 0.51 0.28
9 18 0.18 0.18
9 19 0.54 0.36
10 11 0.3 0.3
10 12 0.5 0.29
10 13 0.82 0.31
10 14 0.68 0.28
10 15 0.3 0.3
10 16 0.06 0.06
10 17 0.3 0.3
10 18 0.21 0.21
10 19 0.34 0.34
11 12 0.32 0.02
11 13 0.46 0.27
11 14 0.34 0.14
11 15 0.38 0.38
11 16 0.44 0.24
11 17 0.6 0.36
11 18 0.22 0.22
11 19 0.34 0.26
12 13 0.25 0.25
12 14 0.53 0.16
12 15 0.71 0.37
12 16 0.26 0.26
12 17 0.68 0.34
12 18 0.24 0.24
12 19 0.28 0.28
13 14 0.7 0.16
13 15 0.38 0.38
13 16 0.25 0.25
13 17 0.84 0.31
13 18 0.58 0.43
13 19 0.8 0.48
14 15 0.5 0.24
14 16 0.3 0.3
14 17 0.54 0.36
14 18 0.27 0.27
14 19 0.32 0.32
15 16 0.45 0.24
15 17 0.32 0.32
15 18 0.78 0.29
15 19 0.82 0.15
16 17 0.76 0.34
16 18 0.52 0.24
16 19 0.54 0.28
17 18 0.47 0.14
17 19 0.17 0.17
18 19 0.18 0.18
